199
110
172
114
164
191
159
135
148
144
166
195
179
200
104
165
172
104
132
170
142
115
199
117
108
147
165
111
193
126
114
107
107
192
100
171
128
103
154
173
169
172
165
190
154
171
115
136
173
116
150
167
180
125
189
163
187
186
199
187
120
137
142
143
171
161
130
154
199
125
105
111
129
125
128
176
170
185
168
195
147
146
170
186
111
182
137
154
106
106
127
199
105
187
124
153
125
125
116
143
